NAME : A3.163405381.tour
COMMENT : Cost = 0_163405381
COMMENT : Found by LKH [Keld Helsgaun] Sun Sep 10 07:53:50 2017
TYPE : TOUR
DIMENSION : 29
TOUR_SECTION
1
10
25
21
23
2
27
18
6
29
19
24
20
7
8
17
22
15
5
28
12
16
9
14
26
13
11
4
3
-1
EOF
